# Solution for model Food_Bank
# Objective value = 3.1943648546983814e+06
x_1_44 1
x_1_198 1
x_1_202 1
x_1_47 1
x_1_197 1
x_1_199 1
x_1_29 1
x_1_97 1
x_1_15 1
x_1_43 1
x_1_123 1
x_1_42 1
x_1_205 1
x_1_122 1
x_1_133 1
x_1_220 1
x_1_101 1
x_1_86 1
x_1_17 1
x_1_130 1
x_1_208 1
x_1_214 1
x_1_146 1
y_44_28 0
y_44_19 1
y_44_10 0
y_44_27 0
y_44_11 0
y_44_2 0
y_44_12 0
y_44_25 0
y_44_9 0
y_44_76 0
y_198_28 0
y_198_19 0
y_198_10 0
y_198_27 0
y_198_11 0
y_198_2 0
y_198_12 0
y_198_25 0
y_198_9 0
y_198_76 1
y_202_28 0
y_202_19 0
y_202_10 0
y_202_27 0
y_202_11 0
y_202_2 0
y_202_12 0
y_202_25 0
y_202_9 0
y_202_76 0
y_47_28 0
y_47_19 0
y_47_10 0
y_47_27 0
y_47_11 0
y_47_2 0
y_47_12 1
y_47_25 0
y_47_9 0
y_47_76 0
y_197_28 0
y_197_19 0
y_197_10 0
y_197_27 0
y_197_11 0
y_197_2 0
y_197_12 0
y_197_25 0
y_197_9 1
y_197_76 0
y_199_28 0
y_199_19 0
y_199_10 0
y_199_27 1
y_199_11 0
y_199_2 0
y_199_12 0
y_199_25 0
y_199_9 0
y_199_76 0
y_29_28 1
y_29_19 0
y_29_10 0
y_29_27 0
y_29_11 0
y_29_2 0
y_29_12 0
y_29_25 0
y_29_9 0
y_29_76 0
y_97_28 0
y_97_19 0
y_97_10 1
y_97_27 0
y_97_11 0
y_97_2 0
y_97_12 0
y_97_25 0
y_97_9 0
y_97_76 0
y_15_28 0
y_15_19 0
y_15_10 0
y_15_27 0
y_15_11 0
y_15_2 0
y_15_12 0
y_15_25 1
y_15_9 0
y_15_76 0
y_43_28 0
y_43_19 0
y_43_10 0
y_43_27 0
y_43_11 0
y_43_2 0
y_43_12 0
y_43_25 0
y_43_9 0
y_43_76 0
y_123_28 0
y_123_19 0
y_123_10 0
y_123_27 1
y_123_11 0
y_123_2 0
y_123_12 0
y_123_25 0
y_123_9 0
y_123_76 0
y_42_28 0
y_42_19 1
y_42_10 0
y_42_27 0
y_42_11 0
y_42_2 0
y_42_12 0
y_42_25 0
y_42_9 0
y_42_76 0
y_205_28 0
y_205_19 0
y_205_10 0
y_205_27 0
y_205_11 0
y_205_2 0
y_205_12 1
y_205_25 0
y_205_9 0
y_205_76 0
y_122_28 0
y_122_19 0
y_122_10 0
y_122_27 0
y_122_11 0
y_122_2 1
y_122_12 0
y_122_25 0
y_122_9 0
y_122_76 0
y_133_28 0
y_133_19 0
y_133_10 0
y_133_27 0
y_133_11 1
y_133_2 0
y_133_12 0
y_133_25 0
y_133_9 0
y_133_76 0
y_220_28 0
y_220_19 0
y_220_10 0
y_220_27 0
y_220_11 0
y_220_2 1
y_220_12 0
y_220_25 0
y_220_9 0
y_220_76 0
y_101_28 1
y_101_19 0
y_101_10 0
y_101_27 0
y_101_11 0
y_101_2 0
y_101_12 0
y_101_25 0
y_101_9 0
y_101_76 0
y_86_28 0
y_86_19 0
y_86_10 0
y_86_27 0
y_86_11 0
y_86_2 0
y_86_12 0
y_86_25 0
y_86_9 0
y_86_76 1
y_17_28 0
y_17_19 0
y_17_10 0
y_17_27 0
y_17_11 1
y_17_2 0
y_17_12 0
y_17_25 0
y_17_9 0
y_17_76 0
y_130_28 0
y_130_19 0
y_130_10 0
y_130_27 0
y_130_11 0
y_130_2 0
y_130_12 0
y_130_25 0
y_130_9 0
y_130_76 0
y_208_28 0
y_208_19 0
y_208_10 1
y_208_27 0
y_208_11 0
y_208_2 0
y_208_12 0
y_208_25 0
y_208_9 0
y_208_76 0
y_214_28 0
y_214_19 0
y_214_10 0
y_214_27 0
y_214_11 0
y_214_2 0
y_214_12 0
y_214_25 0
y_214_9 1
y_214_76 0
y_146_28 0
y_146_19 0
y_146_10 0
y_146_27 0
y_146_11 0
y_146_2 0
y_146_12 0
y_146_25 1
y_146_9 0
y_146_76 0
aFP_1_44 8.1174765214772560e+03
aFP_1_198 5.8670435265894566e+03
aFP_1_202 0
aFP_1_47 8.2789868745063923e+03
aFP_1_197 1.2016984671946382e+03
aFP_1_199 6.8814429049050668e+03
aFP_1_29 7.2696039416951871e+03
aFP_1_97 7.9961323932878349e+03
aFP_1_15 9.0241221973619013e+03
aFP_1_43 0
aFP_1_123 6.8814429047563672e+03
aFP_1_42 6707
aFP_1_205 6.7418730920513317e+03
aFP_1_122 4.9864410611382718e+03
aFP_1_133 7.9687705131169087e+03
aFP_1_220 4.9864410612562460e+03
aFP_1_101 7.2696039414965571e+03
aFP_1_86 6.2580791590500658e+03
aFP_1_17 7.9687705132239553e+03
aFP_1_130 0
aFP_1_208 7.9961323930861117e+03
aFP_1_214 5.8910596719434091e+02
aFP_1_146 9024.1221975495
aPZ_44_28 0
aPZ_198_28 0
aPZ_202_28 0
aPZ_47_28 0
aPZ_197_28 0
aPZ_199_28 0
aPZ_29_28 7.2696039416951871e+03
aPZ_97_28 0
aPZ_15_28 0
aPZ_43_28 0
aPZ_123_28 0
aPZ_42_28 0
aPZ_205_28 0
aPZ_122_28 0
aPZ_133_28 0
aPZ_220_28 0
aPZ_101_28 7.2696039414965571e+03
aPZ_86_28 0
aPZ_17_28 0
aPZ_130_28 0
aPZ_208_28 0
aPZ_214_28 0
aPZ_146_28 0
aPZ_44_19 8.1174765214772560e+03
aPZ_198_19 0
aPZ_202_19 0
aPZ_47_19 0
aPZ_197_19 0
aPZ_199_19 0
aPZ_29_19 0
aPZ_97_19 0
aPZ_15_19 0
aPZ_43_19 0
aPZ_123_19 0
aPZ_42_19 6707
aPZ_205_19 0
aPZ_122_19 0
aPZ_133_19 0
aPZ_220_19 0
aPZ_101_19 0
aPZ_86_19 0
aPZ_17_19 0
aPZ_130_19 0
aPZ_208_19 0
aPZ_214_19 0
aPZ_146_19 0
aPZ_44_10 0
aPZ_198_10 0
aPZ_202_10 0
aPZ_47_10 0
aPZ_197_10 0
aPZ_199_10 0
aPZ_29_10 0
aPZ_97_10 7.9961323932878349e+03
aPZ_15_10 0
aPZ_43_10 0
aPZ_123_10 0
aPZ_42_10 0
aPZ_205_10 0
aPZ_122_10 0
aPZ_133_10 0
aPZ_220_10 0
aPZ_101_10 0
aPZ_86_10 0
aPZ_17_10 0
aPZ_130_10 0
aPZ_208_10 7.9961323930861117e+03
aPZ_214_10 0
aPZ_146_10 0
aPZ_44_27 0
aPZ_198_27 0
aPZ_202_27 0
aPZ_47_27 0
aPZ_197_27 0
aPZ_199_27 6.8814429049050668e+03
aPZ_29_27 0
aPZ_97_27 0
aPZ_15_27 0
aPZ_43_27 0
aPZ_123_27 6.8814429047563672e+03
aPZ_42_27 0
aPZ_205_27 0
aPZ_122_27 0
aPZ_133_27 0
aPZ_220_27 0
aPZ_101_27 0
aPZ_86_27 0
aPZ_17_27 0
aPZ_130_27 0
aPZ_208_27 0
aPZ_214_27 0
aPZ_146_27 0
aPZ_44_11 0
aPZ_198_11 0
aPZ_202_11 0
aPZ_47_11 0
aPZ_197_11 0
aPZ_199_11 0
aPZ_29_11 0
aPZ_97_11 0
aPZ_15_11 0
aPZ_43_11 0
aPZ_123_11 0
aPZ_42_11 0
aPZ_205_11 0
aPZ_122_11 0
aPZ_133_11 7.9687705131169087e+03
aPZ_220_11 0
aPZ_101_11 0
aPZ_86_11 0
aPZ_17_11 7.9687705132239553e+03
aPZ_130_11 0
aPZ_208_11 0
aPZ_214_11 0
aPZ_146_11 0
aPZ_44_2 0
aPZ_198_2 0
aPZ_202_2 0
aPZ_47_2 0
aPZ_197_2 0
aPZ_199_2 0
aPZ_29_2 0
aPZ_97_2 0
aPZ_15_2 0
aPZ_43_2 0
aPZ_123_2 0
aPZ_42_2 0
aPZ_205_2 0
aPZ_122_2 4.9864410611382718e+03
aPZ_133_2 0
aPZ_220_2 4.9864410612562460e+03
aPZ_101_2 0
aPZ_86_2 0
aPZ_17_2 0
aPZ_130_2 0
aPZ_208_2 0
aPZ_214_2 0
aPZ_146_2 0
aPZ_44_12 0
aPZ_198_12 0
aPZ_202_12 0
aPZ_47_12 8.2789868745063923e+03
aPZ_197_12 0
aPZ_199_12 0
aPZ_29_12 0
aPZ_97_12 0
aPZ_15_12 0
aPZ_43_12 0
aPZ_123_12 0
aPZ_42_12 0
aPZ_205_12 6.7418730920513317e+03
aPZ_122_12 0
aPZ_133_12 0
aPZ_220_12 0
aPZ_101_12 0
aPZ_86_12 0
aPZ_17_12 0
aPZ_130_12 0
aPZ_208_12 0
aPZ_214_12 0
aPZ_146_12 0
aPZ_44_25 0
aPZ_198_25 0
aPZ_202_25 0
aPZ_47_25 0
aPZ_197_25 0
aPZ_199_25 0
aPZ_29_25 0
aPZ_97_25 0
aPZ_15_25 9.0241221973619013e+03
aPZ_43_25 0
aPZ_123_25 0
aPZ_42_25 0
aPZ_205_25 0
aPZ_122_25 0
aPZ_133_25 0
aPZ_220_25 0
aPZ_101_25 0
aPZ_86_25 0
aPZ_17_25 0
aPZ_130_25 0
aPZ_208_25 0
aPZ_214_25 0
aPZ_146_25 9024.1221975495
aPZ_44_9 0
aPZ_198_9 0
aPZ_202_9 0
aPZ_47_9 0
aPZ_197_9 1.2016984671946382e+03
aPZ_199_9 0
aPZ_29_9 0
aPZ_97_9 0
aPZ_15_9 0
aPZ_43_9 0
aPZ_123_9 0
aPZ_42_9 0
aPZ_205_9 0
aPZ_122_9 0
aPZ_133_9 0
aPZ_220_9 0
aPZ_101_9 0
aPZ_86_9 0
aPZ_17_9 0
aPZ_130_9 0
aPZ_208_9 0
aPZ_214_9 5.8910596719434091e+02
aPZ_146_9 0
aPZ_44_76 0
aPZ_198_76 5.8670435265894566e+03
aPZ_202_76 0
aPZ_47_76 0
aPZ_197_76 0
aPZ_199_76 0
aPZ_29_76 0
aPZ_97_76 0
aPZ_15_76 0
aPZ_43_76 0
aPZ_123_76 0
aPZ_42_76 0
aPZ_205_76 0
aPZ_122_76 0
aPZ_133_76 0
aPZ_220_76 0
aPZ_101_76 0
aPZ_86_76 6.2580791590500658e+03
aPZ_17_76 0
aPZ_130_76 0
aPZ_208_76 0
aPZ_214_76 0
aPZ_146_76 0
nT_1_44 1
nT_1_198 1
nT_1_202 1
nT_1_47 1
nT_1_197 1
nT_1_199 1
nT_1_29 1
nT_1_97 1
nT_1_15 1
nT_1_43 1
nT_1_123 1
nT_1_42 1
nT_1_205 1
nT_1_122 1
nT_1_133 1
nT_1_220 1
nT_1_101 1
nT_1_86 1
nT_1_17 1
nT_1_130 1
nT_1_208 1
nT_1_214 1
nT_1_146 1
ort_1_44 1.0434782608511661e+01
ort_1_198 1.0434782608469348e+01
ort_1_202 2.3999999999972954e+02
ort_1_47 1.1999999999843546e+01
ort_1_197 5.9999999999772626e+01
ort_1_199 1.0434782608691513e+01
ort_1_29 1.0434782608695564e+01
ort_1_97 1.0434782608695190e+01
ort_1_15 1.0434782608554759e+01
ort_1_43 240
ort_1_123 1.0434782608532942e+01
ort_1_42 1.0434782608695652e+01
ort_1_205 1.0434782608695652e+01
ort_1_122 1.0434782608450817e+01
ort_1_133 1.0434782608489961e+01
ort_1_220 1.0434782608652048e+01
ort_1_101 1.0434782608495709e+01
ort_1_86 1.0909090908924696e+01
ort_1_17 1.0434782608582566e+01
ort_1_130 240
ort_1_208 1.0434782608510218e+01
ort_1_214 2.9999999999758074e+01
ort_1_146 1.0434782608695212e+01
opt_1_44 1.0022242115771132e+01
opt_1_198 1.0001430432139875e+01
opt_1_202 2.3979333333306286e+02
opt_1_47 1.1372717322784892e+01
opt_1_197 5.9673248409746229e+01
opt_1_199 9.7773771301129262e+00
opt_1_29 9.7446357449441372e+00
opt_1_97 9.7083093223641317e+00
opt_1_15 9.65024316535333
opt_1_43 2.3966666666666666e+02
opt_1_123 9.7507104632951229e+00
opt_1_42 9.7127659420289856e+00
opt_1_205 9.7110222874264185e+00
opt_1_122 9.77212722206057
opt_1_133 9.6163440828341162e+00
opt_1_220 9.7654605555892360e+00
opt_1_101 9.6113024114208816e+00
opt_1_86 1.0129520284305526e+01
opt_1_17 9.5630107495880345e+00
opt_1_130 2.3952666666666667e+02
opt_1_208 9.56164265552258
opt_1_214 2.9490544701398356e+01
opt_1_146 9.49690983215107
dt_44_28 0
dt_44_19 4.7209820093071579e+00
dt_44_10 0
dt_44_27 0
dt_44_11 0
dt_44_2 0
dt_44_12 0
dt_44_25 0
dt_44_9 0
dt_44_76 0
dt_198_28 0
dt_198_19 0
dt_198_10 0
dt_198_27 0
dt_198_11 0
dt_198_2 0
dt_198_12 0
dt_198_25 0
dt_198_9 0
dt_198_76 3.3183277056683220e+00
dt_202_28 0
dt_202_19 0
dt_202_10 0
dt_202_27 0
dt_202_11 0
dt_202_2 0
dt_202_12 0
dt_202_25 0
dt_202_9 0
dt_202_76 0
dt_47_28 0
dt_47_19 0
dt_47_10 0
dt_47_27 0
dt_47_11 0
dt_47_2 0
dt_47_12 3.5696454060765177e+00
dt_47_25 0
dt_47_9 0
dt_47_76 0
dt_197_28 0
dt_197_19 0
dt_197_10 0
dt_197_27 0
dt_197_11 0
dt_197_2 0
dt_197_12 0
dt_197_25 0
dt_197_9 1.1501870885157288e+00
dt_197_76 0
dt_199_28 0
dt_199_19 0
dt_199_10 0
dt_199_27 3.0965050166649570e+00
dt_199_11 0
dt_199_2 0
dt_199_12 0
dt_199_25 0
dt_199_9 0
dt_199_76 0
dt_29_28 3.1203613795239367e+00
dt_29_19 0
dt_29_10 0
dt_29_27 0
dt_29_11 0
dt_29_2 0
dt_29_12 0
dt_29_25 0
dt_29_9 0
dt_29_76 0
dt_97_28 0
dt_97_19 0
dt_97_10 3.1026463375798183e+00
dt_97_27 0
dt_97_11 0
dt_97_2 0
dt_97_12 0
dt_97_25 0
dt_97_9 0
dt_97_76 0
dt_15_28 0
dt_15_19 0
dt_15_10 0
dt_15_27 0
dt_15_11 0
dt_15_2 0
dt_15_12 0
dt_15_25 3.6784427691415127e+00
dt_15_9 0
dt_15_76 0
dt_43_28 0
dt_43_19 0
dt_43_10 0
dt_43_27 0
dt_43_11 0
dt_43_2 0
dt_43_12 0
dt_43_25 0
dt_43_9 0
dt_43_76 0
dt_123_28 0
dt_123_19 0
dt_123_10 0
dt_123_27 3.0965050166649570e+00
dt_123_11 0
dt_123_2 0
dt_123_12 0
dt_123_25 0
dt_123_9 0
dt_123_76 0
dt_42_28 0
dt_42_19 5.7138005992045029e+00
dt_42_10 0
dt_42_27 0
dt_42_11 0
dt_42_2 0
dt_42_12 0
dt_42_25 0
dt_42_9 0
dt_42_76 0
dt_205_28 0
dt_205_19 0
dt_205_10 0
dt_205_27 0
dt_205_11 0
dt_205_2 0
dt_205_12 3.5696454060765284e+00
dt_205_25 0
dt_205_9 0
dt_205_76 0
dt_122_28 0
dt_122_19 0
dt_122_10 0
dt_122_27 0
dt_122_11 0
dt_122_2 1.9292543713980628e+00
dt_122_12 0
dt_122_25 0
dt_122_9 0
dt_122_76 0
dt_133_28 0
dt_133_19 0
dt_133_10 0
dt_133_27 0
dt_133_11 3.5410696795906222e+00
dt_133_2 0
dt_133_12 0
dt_133_25 0
dt_133_9 0
dt_133_76 0
dt_220_28 0
dt_220_19 0
dt_220_10 0
dt_220_27 0
dt_220_11 0
dt_220_2 1.9292543713980628e+00
dt_220_12 0
dt_220_25 0
dt_220_9 0
dt_220_76 0
dt_101_28 3.1203613795239367e+00
dt_101_19 0
dt_101_10 0
dt_101_27 0
dt_101_11 0
dt_101_2 0
dt_101_12 0
dt_101_25 0
dt_101_9 0
dt_101_76 0
dt_86_28 0
dt_86_19 0
dt_86_10 0
dt_86_27 0
dt_86_11 0
dt_86_2 0
dt_86_12 0
dt_86_25 0
dt_86_9 0
dt_86_76 3.3183277056683220e+00
dt_17_28 0
dt_17_19 0
dt_17_10 0
dt_17_27 0
dt_17_11 3.5410696795906222e+00
dt_17_2 0
dt_17_12 0
dt_17_25 0
dt_17_9 0
dt_17_76 0
dt_130_28 0
dt_130_19 0
dt_130_10 0
dt_130_27 0
dt_130_11 0
dt_130_2 0
dt_130_12 0
dt_130_25 0
dt_130_9 0
dt_130_76 0
dt_208_28 0
dt_208_19 0
dt_208_10 3.1026463375798183e+00
dt_208_27 0
dt_208_11 0
dt_208_2 0
dt_208_12 0
dt_208_25 0
dt_208_9 0
dt_208_76 0
dt_214_28 0
dt_214_19 0
dt_214_10 0
dt_214_27 0
dt_214_11 0
dt_214_2 0
dt_214_12 0
dt_214_25 0
dt_214_9 1.1501870885157324e+00
dt_214_76 0
dt_146_28 0
dt_146_19 0
dt_146_10 0
dt_146_27 0
dt_146_11 0
dt_146_2 0
dt_146_12 0
dt_146_25 3.6784427691415118e+00
dt_146_9 0
dt_146_76 0
ut_1_44 2.8411167825170396e+00
ut_1_198 2.05346523430631
ut_1_202 0
ut_1_47 2.8976454060772374e+00
ut_1_197 4.2059446351812335e-01
ut_1_199 2.4085050167167732e+00
ut_1_29 2.5443613795933153e+00
ut_1_97 2.7986463376507422e+00
ut_1_15 3.1584427690766654e+00
ut_1_43 0
ut_1_123 2.4085050166647286e+00
ut_1_42 2.34745
ut_1_205 2.3596555822179659e+00
ut_1_122 1.7452543713983952e+00
ut_1_133 2.7890696795909178e+00
ut_1_220 1.7452543714396862e+00
ut_1_101 2.5443613795237949e+00
ut_1_86 2.1903277056675230e+00
ut_1_17 2.7890696796283843e+00
ut_1_130 0
ut_1_208 2.7986463375801391e+00
ut_1_214 2.0618708851801931e-01
ut_1_146 3.1584427691423245e+00
fFP_1_44 23
fFP_1_198 23
fFP_1_202 1
fFP_1_47 20
fFP_1_197 4
fFP_1_199 23
fFP_1_29 23
fFP_1_97 23
fFP_1_15 23
fFP_1_43 1
fFP_1_123 23
fFP_1_42 23
fFP_1_205 23
fFP_1_122 23
fFP_1_133 23
fFP_1_220 23
fFP_1_101 23
fFP_1_86 22
fFP_1_17 23
fFP_1_130 1
fFP_1_208 23
fFP_1_214 8
fFP_1_146 23
dt_28 3.1203613795239362e+00
dt_19 5.7138005992045029e+00
dt_10 3.1026463375798179e+00
dt_27 3.0965050166649570e+00
dt_11 3.5410696795906222e+00
dt_2 1.9292543713980630e+00
dt_12 3.5696454060765204e+00
dt_25 3.6784427691415131e+00
dt_9 1.1501870885157310e+00
dt_76 3.3183277056683220e+00
dtt_28 7.1768311729050538e+01
dtt_19 1.3141741378170357e+02
dtt_10 7.1360865764335813e+01
dtt_27 7.1219615383294013e+01
dtt_11 8.1444602630584313e+01
dtt_2 4.4372850542155447e+01
dtt_12 8.2101844339759964e+01
dtt_25 84.6041836902548
dtt_9 2.6454303035861813e+01
dtt_76 76.3215372303714
dep_cost 3.0936882459372981e+06
log_cost 1.0067660876108352e+05
ort_y_1_44_28 0
ort_y_1_44_19 1.0434782608511661e+01
ort_y_1_44_10 0
ort_y_1_44_27 0
ort_y_1_44_11 0
ort_y_1_44_2 0
ort_y_1_44_12 0
ort_y_1_44_25 0
ort_y_1_44_9 0
ort_y_1_44_76 0
ort_y_1_198_28 0
ort_y_1_198_19 0
ort_y_1_198_10 0
ort_y_1_198_27 0
ort_y_1_198_11 0
ort_y_1_198_2 0
ort_y_1_198_12 0
ort_y_1_198_25 0
ort_y_1_198_9 0
ort_y_1_198_76 1.0434782608469348e+01
ort_y_1_202_28 0
ort_y_1_202_19 0
ort_y_1_202_10 0
ort_y_1_202_27 0
ort_y_1_202_11 0
ort_y_1_202_2 0
ort_y_1_202_12 0
ort_y_1_202_25 0
ort_y_1_202_9 0
ort_y_1_202_76 0
ort_y_1_47_28 0
ort_y_1_47_19 0
ort_y_1_47_10 0
ort_y_1_47_27 0
ort_y_1_47_11 0
ort_y_1_47_2 0
ort_y_1_47_12 1.1999999999843546e+01
ort_y_1_47_25 0
ort_y_1_47_9 0
ort_y_1_47_76 0
ort_y_1_197_28 0
ort_y_1_197_19 0
ort_y_1_197_10 0
ort_y_1_197_27 0
ort_y_1_197_11 0
ort_y_1_197_2 0
ort_y_1_197_12 0
ort_y_1_197_25 0
ort_y_1_197_9 5.9999999999772626e+01
ort_y_1_197_76 0
ort_y_1_199_28 0
ort_y_1_199_19 0
ort_y_1_199_10 0
ort_y_1_199_27 1.0434782608691513e+01
ort_y_1_199_11 0
ort_y_1_199_2 0
ort_y_1_199_12 0
ort_y_1_199_25 0
ort_y_1_199_9 0
ort_y_1_199_76 0
ort_y_1_29_28 1.0434782608695564e+01
ort_y_1_29_19 0
ort_y_1_29_10 0
ort_y_1_29_27 0
ort_y_1_29_11 0
ort_y_1_29_2 0
ort_y_1_29_12 0
ort_y_1_29_25 0
ort_y_1_29_9 0
ort_y_1_29_76 0
ort_y_1_97_28 0
ort_y_1_97_19 0
ort_y_1_97_10 1.0434782608695190e+01
ort_y_1_97_27 0
ort_y_1_97_11 0
ort_y_1_97_2 0
ort_y_1_97_12 0
ort_y_1_97_25 0
ort_y_1_97_9 0
ort_y_1_97_76 0
ort_y_1_15_28 0
ort_y_1_15_19 0
ort_y_1_15_10 0
ort_y_1_15_27 0
ort_y_1_15_11 0
ort_y_1_15_2 0
ort_y_1_15_12 0
ort_y_1_15_25 1.0434782608554759e+01
ort_y_1_15_9 0
ort_y_1_15_76 0
ort_y_1_43_28 0
ort_y_1_43_19 0
ort_y_1_43_10 0
ort_y_1_43_27 0
ort_y_1_43_11 0
ort_y_1_43_2 0
ort_y_1_43_12 0
ort_y_1_43_25 0
ort_y_1_43_9 0
ort_y_1_43_76 0
ort_y_1_123_28 0
ort_y_1_123_19 0
ort_y_1_123_10 0
ort_y_1_123_27 1.0434782608532942e+01
ort_y_1_123_11 0
ort_y_1_123_2 0
ort_y_1_123_12 0
ort_y_1_123_25 0
ort_y_1_123_9 0
ort_y_1_123_76 0
ort_y_1_42_28 0
ort_y_1_42_19 1.0434782608511320e+01
ort_y_1_42_10 0
ort_y_1_42_27 0
ort_y_1_42_11 0
ort_y_1_42_2 0
ort_y_1_42_12 0
ort_y_1_42_25 0
ort_y_1_42_9 0
ort_y_1_42_76 0
ort_y_1_205_28 0
ort_y_1_205_19 0
ort_y_1_205_10 0
ort_y_1_205_27 0
ort_y_1_205_11 0
ort_y_1_205_2 0
ort_y_1_205_12 1.0434782608695652e+01
ort_y_1_205_25 0
ort_y_1_205_9 0
ort_y_1_205_76 0
ort_y_1_122_28 0
ort_y_1_122_19 0
ort_y_1_122_10 0
ort_y_1_122_27 0
ort_y_1_122_11 0
ort_y_1_122_2 1.0434782608450817e+01
ort_y_1_122_12 0
ort_y_1_122_25 0
ort_y_1_122_9 0
ort_y_1_122_76 0
ort_y_1_133_28 0
ort_y_1_133_19 0
ort_y_1_133_10 0
ort_y_1_133_27 0
ort_y_1_133_11 1.0434782608489961e+01
ort_y_1_133_2 0
ort_y_1_133_12 0
ort_y_1_133_25 0
ort_y_1_133_9 0
ort_y_1_133_76 0
ort_y_1_220_28 0
ort_y_1_220_19 0
ort_y_1_220_10 0
ort_y_1_220_27 0
ort_y_1_220_11 0
ort_y_1_220_2 1.0434782608652048e+01
ort_y_1_220_12 0
ort_y_1_220_25 0
ort_y_1_220_9 0
ort_y_1_220_76 0
ort_y_1_101_28 1.0434782608495709e+01
ort_y_1_101_19 0
ort_y_1_101_10 0
ort_y_1_101_27 0
ort_y_1_101_11 0
ort_y_1_101_2 0
ort_y_1_101_12 0
ort_y_1_101_25 0
ort_y_1_101_9 0
ort_y_1_101_76 0
ort_y_1_86_28 0
ort_y_1_86_19 0
ort_y_1_86_10 0
ort_y_1_86_27 0
ort_y_1_86_11 0
ort_y_1_86_2 0
ort_y_1_86_12 0
ort_y_1_86_25 0
ort_y_1_86_9 0
ort_y_1_86_76 1.0909090908924696e+01
ort_y_1_17_28 0
ort_y_1_17_19 0
ort_y_1_17_10 0
ort_y_1_17_27 0
ort_y_1_17_11 1.0434782608582566e+01
ort_y_1_17_2 0
ort_y_1_17_12 0
ort_y_1_17_25 0
ort_y_1_17_9 0
ort_y_1_17_76 0
ort_y_1_130_28 0
ort_y_1_130_19 0
ort_y_1_130_10 0
ort_y_1_130_27 0
ort_y_1_130_11 0
ort_y_1_130_2 0
ort_y_1_130_12 0
ort_y_1_130_25 0
ort_y_1_130_9 0
ort_y_1_130_76 0
ort_y_1_208_28 0
ort_y_1_208_19 0
ort_y_1_208_10 1.0434782608510218e+01
ort_y_1_208_27 0
ort_y_1_208_11 0
ort_y_1_208_2 0
ort_y_1_208_12 0
ort_y_1_208_25 0
ort_y_1_208_9 0
ort_y_1_208_76 0
ort_y_1_214_28 0
ort_y_1_214_19 0
ort_y_1_214_10 0
ort_y_1_214_27 0
ort_y_1_214_11 0
ort_y_1_214_2 0
ort_y_1_214_12 0
ort_y_1_214_25 0
ort_y_1_214_9 2.9999999999758074e+01
ort_y_1_214_76 0
ort_y_1_146_28 0
ort_y_1_146_19 0
ort_y_1_146_10 0
ort_y_1_146_27 0
ort_y_1_146_11 0
ort_y_1_146_2 0
ort_y_1_146_12 0
ort_y_1_146_25 1.0434782608695212e+01
ort_y_1_146_9 0
ort_y_1_146_76 0
ut_y_1_44_28 0
ut_y_1_44_19 2.8411167825170396e+00
ut_y_1_44_10 0
ut_y_1_44_27 0
ut_y_1_44_11 0
ut_y_1_44_2 0
ut_y_1_44_12 0
ut_y_1_44_25 0
ut_y_1_44_9 0
ut_y_1_44_76 0
ut_y_1_198_28 0
ut_y_1_198_19 0
ut_y_1_198_10 0
ut_y_1_198_27 0
ut_y_1_198_11 0
ut_y_1_198_2 0
ut_y_1_198_12 0
ut_y_1_198_25 0
ut_y_1_198_9 0
ut_y_1_198_76 2.0534652343064850e+00
ut_y_1_202_28 0
ut_y_1_202_19 0
ut_y_1_202_10 0
ut_y_1_202_27 0
ut_y_1_202_11 0
ut_y_1_202_2 0
ut_y_1_202_12 0
ut_y_1_202_25 0
ut_y_1_202_9 0
ut_y_1_202_76 0
ut_y_1_47_28 0
ut_y_1_47_19 0
ut_y_1_47_10 0
ut_y_1_47_27 0
ut_y_1_47_11 0
ut_y_1_47_2 0
ut_y_1_47_12 2.8976454060765420e+00
ut_y_1_47_25 0
ut_y_1_47_9 0
ut_y_1_47_76 0
ut_y_1_197_28 0
ut_y_1_197_19 0
ut_y_1_197_10 0
ut_y_1_197_27 0
ut_y_1_197_11 0
ut_y_1_197_2 0
ut_y_1_197_12 0
ut_y_1_197_25 0
ut_y_1_197_9 4.2059446351860919e-01
ut_y_1_197_76 0
ut_y_1_199_28 0
ut_y_1_199_19 0
ut_y_1_199_10 0
ut_y_1_199_27 2.4085050167167963e+00
ut_y_1_199_11 0
ut_y_1_199_2 0
ut_y_1_199_12 0
ut_y_1_199_25 0
ut_y_1_199_9 0
ut_y_1_199_76 0
ut_y_1_29_28 2.5443613795929227e+00
ut_y_1_29_19 0
ut_y_1_29_10 0
ut_y_1_29_27 0
ut_y_1_29_11 0
ut_y_1_29_2 0
ut_y_1_29_12 0
ut_y_1_29_25 0
ut_y_1_29_9 0
ut_y_1_29_76 0
ut_y_1_97_28 0
ut_y_1_97_19 0
ut_y_1_97_10 2.79864633765149
ut_y_1_97_27 0
ut_y_1_97_11 0
ut_y_1_97_2 0
ut_y_1_97_12 0
ut_y_1_97_25 0
ut_y_1_97_9 0
ut_y_1_97_76 0
ut_y_1_15_28 0
ut_y_1_15_19 0
ut_y_1_15_10 0
ut_y_1_15_27 0
ut_y_1_15_11 0
ut_y_1_15_2 0
ut_y_1_15_12 0
ut_y_1_15_25 3.1584427690762666e+00
ut_y_1_15_9 0
ut_y_1_15_76 0
ut_y_1_43_28 0
ut_y_1_43_19 0
ut_y_1_43_10 0
ut_y_1_43_27 0
ut_y_1_43_11 0
ut_y_1_43_2 0
ut_y_1_43_12 0
ut_y_1_43_25 0
ut_y_1_43_9 0
ut_y_1_43_76 0
ut_y_1_123_28 0
ut_y_1_123_19 0
ut_y_1_123_10 0
ut_y_1_123_27 2.4085050166649991e+00
ut_y_1_123_11 0
ut_y_1_123_2 0
ut_y_1_123_12 0
ut_y_1_123_25 0
ut_y_1_123_9 0
ut_y_1_123_76 0
ut_y_1_42_28 0
ut_y_1_42_19 2.3474499999994407e+00
ut_y_1_42_10 0
ut_y_1_42_27 0
ut_y_1_42_11 0
ut_y_1_42_2 0
ut_y_1_42_12 0
ut_y_1_42_25 0
ut_y_1_42_9 0
ut_y_1_42_76 0
ut_y_1_205_28 0
ut_y_1_205_19 0
ut_y_1_205_10 0
ut_y_1_205_27 0
ut_y_1_205_11 0
ut_y_1_205_2 0
ut_y_1_205_12 2.3596555822179663e+00
ut_y_1_205_25 0
ut_y_1_205_9 0
ut_y_1_205_76 0
ut_y_1_122_28 0
ut_y_1_122_19 0
ut_y_1_122_10 0
ut_y_1_122_27 0
ut_y_1_122_11 0
ut_y_1_122_2 1.7452543713980808e+00
ut_y_1_122_12 0
ut_y_1_122_25 0
ut_y_1_122_9 0
ut_y_1_122_76 0
ut_y_1_133_28 0
ut_y_1_133_19 0
ut_y_1_133_10 0
ut_y_1_133_27 0
ut_y_1_133_11 2.7890696795906886e+00
ut_y_1_133_2 0
ut_y_1_133_12 0
ut_y_1_133_25 0
ut_y_1_133_9 0
ut_y_1_133_76 0
ut_y_1_220_28 0
ut_y_1_220_19 0
ut_y_1_220_10 0
ut_y_1_220_27 0
ut_y_1_220_11 0
ut_y_1_220_2 1.7452543714398807e+00
ut_y_1_220_12 0
ut_y_1_220_25 0
ut_y_1_220_9 0
ut_y_1_220_76 0
ut_y_1_101_28 2.5443613795239779e+00
ut_y_1_101_19 0
ut_y_1_101_10 0
ut_y_1_101_27 0
ut_y_1_101_11 0
ut_y_1_101_2 0
ut_y_1_101_12 0
ut_y_1_101_25 0
ut_y_1_101_9 0
ut_y_1_101_76 0
ut_y_1_86_28 0
ut_y_1_86_19 0
ut_y_1_86_10 0
ut_y_1_86_27 0
ut_y_1_86_11 0
ut_y_1_86_2 0
ut_y_1_86_12 0
ut_y_1_86_25 0
ut_y_1_86_9 0
ut_y_1_86_76 2.1903277056683614e+00
ut_y_1_17_28 0
ut_y_1_17_19 0
ut_y_1_17_10 0
ut_y_1_17_27 0
ut_y_1_17_11 2.7890696796282359e+00
ut_y_1_17_2 0
ut_y_1_17_12 0
ut_y_1_17_25 0
ut_y_1_17_9 0
ut_y_1_17_76 0
ut_y_1_130_28 0
ut_y_1_130_19 0
ut_y_1_130_10 0
ut_y_1_130_27 0
ut_y_1_130_11 0
ut_y_1_130_2 0
ut_y_1_130_12 0
ut_y_1_130_25 0
ut_y_1_130_9 0
ut_y_1_130_76 0
ut_y_1_208_28 0
ut_y_1_208_19 0
ut_y_1_208_10 2.7986463375798509e+00
ut_y_1_208_27 0
ut_y_1_208_11 0
ut_y_1_208_2 0
ut_y_1_208_12 0
ut_y_1_208_25 0
ut_y_1_208_9 0
ut_y_1_208_76 0
ut_y_1_214_28 0
ut_y_1_214_19 0
ut_y_1_214_10 0
ut_y_1_214_27 0
ut_y_1_214_11 0
ut_y_1_214_2 0
ut_y_1_214_12 0
ut_y_1_214_25 0
ut_y_1_214_9 2.0618708851731810e-01
ut_y_1_214_76 0
ut_y_1_146_28 0
ut_y_1_146_19 0
ut_y_1_146_10 0
ut_y_1_146_27 0
ut_y_1_146_11 0
ut_y_1_146_2 0
ut_y_1_146_12 0
ut_y_1_146_25 3.1584427691415096e+00
ut_y_1_146_9 0
ut_y_1_146_76 0
ort_fFP_1_44 0
ort_fFP_1_198 0
ort_fFP_1_202 0
ort_fFP_1_47 0
ort_fFP_1_197 0
ort_fFP_1_199 0
ort_fFP_1_29 0
ort_fFP_1_97 0
ort_fFP_1_15 0
ort_fFP_1_43 0
ort_fFP_1_123 0
ort_fFP_1_42 0
ort_fFP_1_205 0
ort_fFP_1_122 0
ort_fFP_1_133 0
ort_fFP_1_220 0
ort_fFP_1_101 0
ort_fFP_1_86 0
ort_fFP_1_17 0
ort_fFP_1_130 0
ort_fFP_1_208 0
ort_fFP_1_214 0
ort_fFP_1_146 0
ort_fFP1_1_44 0
ort_fFP1_1_198 0
ort_fFP1_1_202 0
ort_fFP1_1_47 0
ort_fFP1_1_197 0
ort_fFP1_1_199 0
ort_fFP1_1_29 0
ort_fFP1_1_97 0
ort_fFP1_1_15 0
ort_fFP1_1_43 0
ort_fFP1_1_123 0
ort_fFP1_1_42 0
ort_fFP1_1_205 0
ort_fFP1_1_122 0
ort_fFP1_1_133 0
ort_fFP1_1_220 0
ort_fFP1_1_101 0
ort_fFP1_1_86 0
ort_fFP1_1_17 0
ort_fFP1_1_130 0
ort_fFP1_1_208 0
ort_fFP1_1_214 0
ort_fFP1_1_146 0
ort_fFP2_1_44 0
ort_fFP2_1_198 0
ort_fFP2_1_202 0
ort_fFP2_1_47 0
ort_fFP2_1_197 0
ort_fFP2_1_199 0
ort_fFP2_1_29 0
ort_fFP2_1_97 0
ort_fFP2_1_15 0
ort_fFP2_1_43 0
ort_fFP2_1_123 0
ort_fFP2_1_42 0
ort_fFP2_1_205 0
ort_fFP2_1_122 0
ort_fFP2_1_133 0
ort_fFP2_1_220 0
ort_fFP2_1_101 0
ort_fFP2_1_86 0
ort_fFP2_1_17 0
ort_fFP2_1_130 0
ort_fFP2_1_208 0
ort_fFP2_1_214 0
ort_fFP2_1_146 0
dt_fFP_1_44_28 0
dt_fFP_1_44_19 0
dt_fFP_1_44_10 0
dt_fFP_1_44_27 0
dt_fFP_1_44_11 0
dt_fFP_1_44_2 0
dt_fFP_1_44_12 0
dt_fFP_1_44_25 0
dt_fFP_1_44_9 0
dt_fFP_1_44_76 0
dt_fFP_1_198_28 0
dt_fFP_1_198_19 0
dt_fFP_1_198_10 0
dt_fFP_1_198_27 0
dt_fFP_1_198_11 0
dt_fFP_1_198_2 0
dt_fFP_1_198_12 0
dt_fFP_1_198_25 0
dt_fFP_1_198_9 0
dt_fFP_1_198_76 0
dt_fFP_1_202_28 0
dt_fFP_1_202_19 0
dt_fFP_1_202_10 0
dt_fFP_1_202_27 0
dt_fFP_1_202_11 0
dt_fFP_1_202_2 0
dt_fFP_1_202_12 0
dt_fFP_1_202_25 0
dt_fFP_1_202_9 0
dt_fFP_1_202_76 0
dt_fFP_1_47_28 0
dt_fFP_1_47_19 0
dt_fFP_1_47_10 0
dt_fFP_1_47_27 0
dt_fFP_1_47_11 0
dt_fFP_1_47_2 0
dt_fFP_1_47_12 0
dt_fFP_1_47_25 0
dt_fFP_1_47_9 0
dt_fFP_1_47_76 0
dt_fFP_1_197_28 0
dt_fFP_1_197_19 0
dt_fFP_1_197_10 0
dt_fFP_1_197_27 0
dt_fFP_1_197_11 0
dt_fFP_1_197_2 0
dt_fFP_1_197_12 0
dt_fFP_1_197_25 0
dt_fFP_1_197_9 0
dt_fFP_1_197_76 0
dt_fFP_1_199_28 0
dt_fFP_1_199_19 0
dt_fFP_1_199_10 0
dt_fFP_1_199_27 0
dt_fFP_1_199_11 0
dt_fFP_1_199_2 0
dt_fFP_1_199_12 0
dt_fFP_1_199_25 0
dt_fFP_1_199_9 0
dt_fFP_1_199_76 0
dt_fFP_1_29_28 0
dt_fFP_1_29_19 0
dt_fFP_1_29_10 0
dt_fFP_1_29_27 0
dt_fFP_1_29_11 0
dt_fFP_1_29_2 0
dt_fFP_1_29_12 0
dt_fFP_1_29_25 0
dt_fFP_1_29_9 0
dt_fFP_1_29_76 0
dt_fFP_1_97_28 0
dt_fFP_1_97_19 0
dt_fFP_1_97_10 0
dt_fFP_1_97_27 0
dt_fFP_1_97_11 0
dt_fFP_1_97_2 0
dt_fFP_1_97_12 0
dt_fFP_1_97_25 0
dt_fFP_1_97_9 0
dt_fFP_1_97_76 0
dt_fFP_1_15_28 0
dt_fFP_1_15_19 0
dt_fFP_1_15_10 0
dt_fFP_1_15_27 0
dt_fFP_1_15_11 0
dt_fFP_1_15_2 0
dt_fFP_1_15_12 0
dt_fFP_1_15_25 0
dt_fFP_1_15_9 0
dt_fFP_1_15_76 0
dt_fFP_1_43_28 0
dt_fFP_1_43_19 0
dt_fFP_1_43_10 0
dt_fFP_1_43_27 0
dt_fFP_1_43_11 0
dt_fFP_1_43_2 0
dt_fFP_1_43_12 0
dt_fFP_1_43_25 0
dt_fFP_1_43_9 0
dt_fFP_1_43_76 0
dt_fFP_1_123_28 0
dt_fFP_1_123_19 0
dt_fFP_1_123_10 0
dt_fFP_1_123_27 0
dt_fFP_1_123_11 0
dt_fFP_1_123_2 0
dt_fFP_1_123_12 0
dt_fFP_1_123_25 0
dt_fFP_1_123_9 0
dt_fFP_1_123_76 0
dt_fFP_1_42_28 0
dt_fFP_1_42_19 0
dt_fFP_1_42_10 0
dt_fFP_1_42_27 0
dt_fFP_1_42_11 0
dt_fFP_1_42_2 0
dt_fFP_1_42_12 0
dt_fFP_1_42_25 0
dt_fFP_1_42_9 0
dt_fFP_1_42_76 0
dt_fFP_1_205_28 0
dt_fFP_1_205_19 0
dt_fFP_1_205_10 0
dt_fFP_1_205_27 0
dt_fFP_1_205_11 0
dt_fFP_1_205_2 0
dt_fFP_1_205_12 0
dt_fFP_1_205_25 0
dt_fFP_1_205_9 0
dt_fFP_1_205_76 0
dt_fFP_1_122_28 0
dt_fFP_1_122_19 0
dt_fFP_1_122_10 0
dt_fFP_1_122_27 0
dt_fFP_1_122_11 0
dt_fFP_1_122_2 0
dt_fFP_1_122_12 0
dt_fFP_1_122_25 0
dt_fFP_1_122_9 0
dt_fFP_1_122_76 0
dt_fFP_1_133_28 0
dt_fFP_1_133_19 0
dt_fFP_1_133_10 0
dt_fFP_1_133_27 0
dt_fFP_1_133_11 0
dt_fFP_1_133_2 0
dt_fFP_1_133_12 0
dt_fFP_1_133_25 0
dt_fFP_1_133_9 0
dt_fFP_1_133_76 0
dt_fFP_1_220_28 0
dt_fFP_1_220_19 0
dt_fFP_1_220_10 0
dt_fFP_1_220_27 0
dt_fFP_1_220_11 0
dt_fFP_1_220_2 0
dt_fFP_1_220_12 0
dt_fFP_1_220_25 0
dt_fFP_1_220_9 0
dt_fFP_1_220_76 0
dt_fFP_1_101_28 0
dt_fFP_1_101_19 0
dt_fFP_1_101_10 0
dt_fFP_1_101_27 0
dt_fFP_1_101_11 0
dt_fFP_1_101_2 0
dt_fFP_1_101_12 0
dt_fFP_1_101_25 0
dt_fFP_1_101_9 0
dt_fFP_1_101_76 0
dt_fFP_1_86_28 0
dt_fFP_1_86_19 0
dt_fFP_1_86_10 0
dt_fFP_1_86_27 0
dt_fFP_1_86_11 0
dt_fFP_1_86_2 0
dt_fFP_1_86_12 0
dt_fFP_1_86_25 0
dt_fFP_1_86_9 0
dt_fFP_1_86_76 0
dt_fFP_1_17_28 0
dt_fFP_1_17_19 0
dt_fFP_1_17_10 0
dt_fFP_1_17_27 0
dt_fFP_1_17_11 0
dt_fFP_1_17_2 0
dt_fFP_1_17_12 0
dt_fFP_1_17_25 0
dt_fFP_1_17_9 0
dt_fFP_1_17_76 0
dt_fFP_1_130_28 0
dt_fFP_1_130_19 0
dt_fFP_1_130_10 0
dt_fFP_1_130_27 0
dt_fFP_1_130_11 0
dt_fFP_1_130_2 0
dt_fFP_1_130_12 0
dt_fFP_1_130_25 0
dt_fFP_1_130_9 0
dt_fFP_1_130_76 0
dt_fFP_1_208_28 0
dt_fFP_1_208_19 0
dt_fFP_1_208_10 0
dt_fFP_1_208_27 0
dt_fFP_1_208_11 0
dt_fFP_1_208_2 0
dt_fFP_1_208_12 0
dt_fFP_1_208_25 0
dt_fFP_1_208_9 0
dt_fFP_1_208_76 0
dt_fFP_1_214_28 0
dt_fFP_1_214_19 0
dt_fFP_1_214_10 0
dt_fFP_1_214_27 0
dt_fFP_1_214_11 0
dt_fFP_1_214_2 0
dt_fFP_1_214_12 0
dt_fFP_1_214_25 0
dt_fFP_1_214_9 0
dt_fFP_1_214_76 0
dt_fFP_1_146_28 0
dt_fFP_1_146_19 0
dt_fFP_1_146_10 0
dt_fFP_1_146_27 0
dt_fFP_1_146_11 0
dt_fFP_1_146_2 0
dt_fFP_1_146_12 0
dt_fFP_1_146_25 0
dt_fFP_1_146_9 0
dt_fFP_1_146_76 0
dt_fFP1_1_44_28 0
dt_fFP1_1_44_19 0
dt_fFP1_1_44_10 0
dt_fFP1_1_44_27 0
dt_fFP1_1_44_11 0
dt_fFP1_1_44_2 0
dt_fFP1_1_44_12 0
dt_fFP1_1_44_25 0
dt_fFP1_1_44_9 0
dt_fFP1_1_44_76 0
dt_fFP1_1_198_28 0
dt_fFP1_1_198_19 0
dt_fFP1_1_198_10 0
dt_fFP1_1_198_27 0
dt_fFP1_1_198_11 0
dt_fFP1_1_198_2 0
dt_fFP1_1_198_12 0
dt_fFP1_1_198_25 0
dt_fFP1_1_198_9 0
dt_fFP1_1_198_76 0
dt_fFP1_1_202_28 0
dt_fFP1_1_202_19 0
dt_fFP1_1_202_10 0
dt_fFP1_1_202_27 0
dt_fFP1_1_202_11 0
dt_fFP1_1_202_2 0
dt_fFP1_1_202_12 0
dt_fFP1_1_202_25 0
dt_fFP1_1_202_9 0
dt_fFP1_1_202_76 0
dt_fFP1_1_47_28 0
dt_fFP1_1_47_19 0
dt_fFP1_1_47_10 0
dt_fFP1_1_47_27 0
dt_fFP1_1_47_11 0
dt_fFP1_1_47_2 0
dt_fFP1_1_47_12 0
dt_fFP1_1_47_25 0
dt_fFP1_1_47_9 0
dt_fFP1_1_47_76 0
dt_fFP1_1_197_28 0
dt_fFP1_1_197_19 0
dt_fFP1_1_197_10 0
dt_fFP1_1_197_27 0
dt_fFP1_1_197_11 0
dt_fFP1_1_197_2 0
dt_fFP1_1_197_12 0
dt_fFP1_1_197_25 0
dt_fFP1_1_197_9 0
dt_fFP1_1_197_76 0
dt_fFP1_1_199_28 0
dt_fFP1_1_199_19 0
dt_fFP1_1_199_10 0
dt_fFP1_1_199_27 0
dt_fFP1_1_199_11 0
dt_fFP1_1_199_2 0
dt_fFP1_1_199_12 0
dt_fFP1_1_199_25 0
dt_fFP1_1_199_9 0
dt_fFP1_1_199_76 0
dt_fFP1_1_29_28 0
dt_fFP1_1_29_19 0
dt_fFP1_1_29_10 0
dt_fFP1_1_29_27 0
dt_fFP1_1_29_11 0
dt_fFP1_1_29_2 0
dt_fFP1_1_29_12 0
dt_fFP1_1_29_25 0
dt_fFP1_1_29_9 0
dt_fFP1_1_29_76 0
dt_fFP1_1_97_28 0
dt_fFP1_1_97_19 0
dt_fFP1_1_97_10 0
dt_fFP1_1_97_27 0
dt_fFP1_1_97_11 0
dt_fFP1_1_97_2 0
dt_fFP1_1_97_12 0
dt_fFP1_1_97_25 0
dt_fFP1_1_97_9 0
dt_fFP1_1_97_76 0
dt_fFP1_1_15_28 0
dt_fFP1_1_15_19 0
dt_fFP1_1_15_10 0
dt_fFP1_1_15_27 0
dt_fFP1_1_15_11 0
dt_fFP1_1_15_2 0
dt_fFP1_1_15_12 0
dt_fFP1_1_15_25 0
dt_fFP1_1_15_9 0
dt_fFP1_1_15_76 0
dt_fFP1_1_43_28 0
dt_fFP1_1_43_19 0
dt_fFP1_1_43_10 0
dt_fFP1_1_43_27 0
dt_fFP1_1_43_11 0
dt_fFP1_1_43_2 0
dt_fFP1_1_43_12 0
dt_fFP1_1_43_25 0
dt_fFP1_1_43_9 0
dt_fFP1_1_43_76 0
dt_fFP1_1_123_28 0
dt_fFP1_1_123_19 0
dt_fFP1_1_123_10 0
dt_fFP1_1_123_27 0
dt_fFP1_1_123_11 0
dt_fFP1_1_123_2 0
dt_fFP1_1_123_12 0
dt_fFP1_1_123_25 0
dt_fFP1_1_123_9 0
dt_fFP1_1_123_76 0
dt_fFP1_1_42_28 0
dt_fFP1_1_42_19 0
dt_fFP1_1_42_10 0
dt_fFP1_1_42_27 0
dt_fFP1_1_42_11 0
dt_fFP1_1_42_2 0
dt_fFP1_1_42_12 0
dt_fFP1_1_42_25 0
dt_fFP1_1_42_9 0
dt_fFP1_1_42_76 0
dt_fFP1_1_205_28 0
dt_fFP1_1_205_19 0
dt_fFP1_1_205_10 0
dt_fFP1_1_205_27 0
dt_fFP1_1_205_11 0
dt_fFP1_1_205_2 0
dt_fFP1_1_205_12 0
dt_fFP1_1_205_25 0
dt_fFP1_1_205_9 0
dt_fFP1_1_205_76 0
dt_fFP1_1_122_28 0
dt_fFP1_1_122_19 0
dt_fFP1_1_122_10 0
dt_fFP1_1_122_27 0
dt_fFP1_1_122_11 0
dt_fFP1_1_122_2 0
dt_fFP1_1_122_12 0
dt_fFP1_1_122_25 0
dt_fFP1_1_122_9 0
dt_fFP1_1_122_76 0
dt_fFP1_1_133_28 0
dt_fFP1_1_133_19 0
dt_fFP1_1_133_10 0
dt_fFP1_1_133_27 0
dt_fFP1_1_133_11 0
dt_fFP1_1_133_2 0
dt_fFP1_1_133_12 0
dt_fFP1_1_133_25 0
dt_fFP1_1_133_9 0
dt_fFP1_1_133_76 0
dt_fFP1_1_220_28 0
dt_fFP1_1_220_19 0
dt_fFP1_1_220_10 0
dt_fFP1_1_220_27 0
dt_fFP1_1_220_11 0
dt_fFP1_1_220_2 0
dt_fFP1_1_220_12 0
dt_fFP1_1_220_25 0
dt_fFP1_1_220_9 0
dt_fFP1_1_220_76 0
dt_fFP1_1_101_28 0
dt_fFP1_1_101_19 0
dt_fFP1_1_101_10 0
dt_fFP1_1_101_27 0
dt_fFP1_1_101_11 0
dt_fFP1_1_101_2 0
dt_fFP1_1_101_12 0
dt_fFP1_1_101_25 0
dt_fFP1_1_101_9 0
dt_fFP1_1_101_76 0
dt_fFP1_1_86_28 0
dt_fFP1_1_86_19 0
dt_fFP1_1_86_10 0
dt_fFP1_1_86_27 0
dt_fFP1_1_86_11 0
dt_fFP1_1_86_2 0
dt_fFP1_1_86_12 0
dt_fFP1_1_86_25 0
dt_fFP1_1_86_9 0
dt_fFP1_1_86_76 0
dt_fFP1_1_17_28 0
dt_fFP1_1_17_19 0
dt_fFP1_1_17_10 0
dt_fFP1_1_17_27 0
dt_fFP1_1_17_11 0
dt_fFP1_1_17_2 0
dt_fFP1_1_17_12 0
dt_fFP1_1_17_25 0
dt_fFP1_1_17_9 0
dt_fFP1_1_17_76 0
dt_fFP1_1_130_28 0
dt_fFP1_1_130_19 0
dt_fFP1_1_130_10 0
dt_fFP1_1_130_27 0
dt_fFP1_1_130_11 0
dt_fFP1_1_130_2 0
dt_fFP1_1_130_12 0
dt_fFP1_1_130_25 0
dt_fFP1_1_130_9 0
dt_fFP1_1_130_76 0
dt_fFP1_1_208_28 0
dt_fFP1_1_208_19 0
dt_fFP1_1_208_10 0
dt_fFP1_1_208_27 0
dt_fFP1_1_208_11 0
dt_fFP1_1_208_2 0
dt_fFP1_1_208_12 0
dt_fFP1_1_208_25 0
dt_fFP1_1_208_9 0
dt_fFP1_1_208_76 0
dt_fFP1_1_214_28 0
dt_fFP1_1_214_19 0
dt_fFP1_1_214_10 0
dt_fFP1_1_214_27 0
dt_fFP1_1_214_11 0
dt_fFP1_1_214_2 0
dt_fFP1_1_214_12 0
dt_fFP1_1_214_25 0
dt_fFP1_1_214_9 0
dt_fFP1_1_214_76 0
dt_fFP1_1_146_28 0
dt_fFP1_1_146_19 0
dt_fFP1_1_146_10 0
dt_fFP1_1_146_27 0
dt_fFP1_1_146_11 0
dt_fFP1_1_146_2 0
dt_fFP1_1_146_12 0
dt_fFP1_1_146_25 0
dt_fFP1_1_146_9 0
dt_fFP1_1_146_76 0
dt_fFP2_1_44_28 0
dt_fFP2_1_44_19 0
dt_fFP2_1_44_10 0
dt_fFP2_1_44_27 0
dt_fFP2_1_44_11 0
dt_fFP2_1_44_2 0
dt_fFP2_1_44_12 0
dt_fFP2_1_44_25 0
dt_fFP2_1_44_9 0
dt_fFP2_1_44_76 0
dt_fFP2_1_198_28 0
dt_fFP2_1_198_19 0
dt_fFP2_1_198_10 0
dt_fFP2_1_198_27 0
dt_fFP2_1_198_11 0
dt_fFP2_1_198_2 0
dt_fFP2_1_198_12 0
dt_fFP2_1_198_25 0
dt_fFP2_1_198_9 0
dt_fFP2_1_198_76 0
dt_fFP2_1_202_28 0
dt_fFP2_1_202_19 0
dt_fFP2_1_202_10 0
dt_fFP2_1_202_27 0
dt_fFP2_1_202_11 0
dt_fFP2_1_202_2 0
dt_fFP2_1_202_12 0
dt_fFP2_1_202_25 0
dt_fFP2_1_202_9 0
dt_fFP2_1_202_76 0
dt_fFP2_1_47_28 0
dt_fFP2_1_47_19 0
dt_fFP2_1_47_10 0
dt_fFP2_1_47_27 0
dt_fFP2_1_47_11 0
dt_fFP2_1_47_2 0
dt_fFP2_1_47_12 0
dt_fFP2_1_47_25 0
dt_fFP2_1_47_9 0
dt_fFP2_1_47_76 0
dt_fFP2_1_197_28 0
dt_fFP2_1_197_19 0
dt_fFP2_1_197_10 0
dt_fFP2_1_197_27 0
dt_fFP2_1_197_11 0
dt_fFP2_1_197_2 0
dt_fFP2_1_197_12 0
dt_fFP2_1_197_25 0
dt_fFP2_1_197_9 0
dt_fFP2_1_197_76 0
dt_fFP2_1_199_28 0
dt_fFP2_1_199_19 0
dt_fFP2_1_199_10 0
dt_fFP2_1_199_27 0
dt_fFP2_1_199_11 0
dt_fFP2_1_199_2 0
dt_fFP2_1_199_12 0
dt_fFP2_1_199_25 0
dt_fFP2_1_199_9 0
dt_fFP2_1_199_76 0
dt_fFP2_1_29_28 0
dt_fFP2_1_29_19 0
dt_fFP2_1_29_10 0
dt_fFP2_1_29_27 0
dt_fFP2_1_29_11 0
dt_fFP2_1_29_2 0
dt_fFP2_1_29_12 0
dt_fFP2_1_29_25 0
dt_fFP2_1_29_9 0
dt_fFP2_1_29_76 0
dt_fFP2_1_97_28 0
dt_fFP2_1_97_19 0
dt_fFP2_1_97_10 0
dt_fFP2_1_97_27 0
dt_fFP2_1_97_11 0
dt_fFP2_1_97_2 0
dt_fFP2_1_97_12 0
dt_fFP2_1_97_25 0
dt_fFP2_1_97_9 0
dt_fFP2_1_97_76 0
dt_fFP2_1_15_28 0
dt_fFP2_1_15_19 0
dt_fFP2_1_15_10 0
dt_fFP2_1_15_27 0
dt_fFP2_1_15_11 0
dt_fFP2_1_15_2 0
dt_fFP2_1_15_12 0
dt_fFP2_1_15_25 0
dt_fFP2_1_15_9 0
dt_fFP2_1_15_76 0
dt_fFP2_1_43_28 0
dt_fFP2_1_43_19 0
dt_fFP2_1_43_10 0
dt_fFP2_1_43_27 0
dt_fFP2_1_43_11 0
dt_fFP2_1_43_2 0
dt_fFP2_1_43_12 0
dt_fFP2_1_43_25 0
dt_fFP2_1_43_9 0
dt_fFP2_1_43_76 0
dt_fFP2_1_123_28 0
dt_fFP2_1_123_19 0
dt_fFP2_1_123_10 0
dt_fFP2_1_123_27 0
dt_fFP2_1_123_11 0
dt_fFP2_1_123_2 0
dt_fFP2_1_123_12 0
dt_fFP2_1_123_25 0
dt_fFP2_1_123_9 0
dt_fFP2_1_123_76 0
dt_fFP2_1_42_28 0
dt_fFP2_1_42_19 0
dt_fFP2_1_42_10 0
dt_fFP2_1_42_27 0
dt_fFP2_1_42_11 0
dt_fFP2_1_42_2 0
dt_fFP2_1_42_12 0
dt_fFP2_1_42_25 0
dt_fFP2_1_42_9 0
dt_fFP2_1_42_76 0
dt_fFP2_1_205_28 0
dt_fFP2_1_205_19 0
dt_fFP2_1_205_10 0
dt_fFP2_1_205_27 0
dt_fFP2_1_205_11 0
dt_fFP2_1_205_2 0
dt_fFP2_1_205_12 0
dt_fFP2_1_205_25 0
dt_fFP2_1_205_9 0
dt_fFP2_1_205_76 0
dt_fFP2_1_122_28 0
dt_fFP2_1_122_19 0
dt_fFP2_1_122_10 0
dt_fFP2_1_122_27 0
dt_fFP2_1_122_11 0
dt_fFP2_1_122_2 0
dt_fFP2_1_122_12 0
dt_fFP2_1_122_25 0
dt_fFP2_1_122_9 0
dt_fFP2_1_122_76 0
dt_fFP2_1_133_28 0
dt_fFP2_1_133_19 0
dt_fFP2_1_133_10 0
dt_fFP2_1_133_27 0
dt_fFP2_1_133_11 0
dt_fFP2_1_133_2 0
dt_fFP2_1_133_12 0
dt_fFP2_1_133_25 0
dt_fFP2_1_133_9 0
dt_fFP2_1_133_76 0
dt_fFP2_1_220_28 0
dt_fFP2_1_220_19 0
dt_fFP2_1_220_10 0
dt_fFP2_1_220_27 0
dt_fFP2_1_220_11 0
dt_fFP2_1_220_2 0
dt_fFP2_1_220_12 0
dt_fFP2_1_220_25 0
dt_fFP2_1_220_9 0
dt_fFP2_1_220_76 0
dt_fFP2_1_101_28 0
dt_fFP2_1_101_19 0
dt_fFP2_1_101_10 0
dt_fFP2_1_101_27 0
dt_fFP2_1_101_11 0
dt_fFP2_1_101_2 0
dt_fFP2_1_101_12 0
dt_fFP2_1_101_25 0
dt_fFP2_1_101_9 0
dt_fFP2_1_101_76 0
dt_fFP2_1_86_28 0
dt_fFP2_1_86_19 0
dt_fFP2_1_86_10 0
dt_fFP2_1_86_27 0
dt_fFP2_1_86_11 0
dt_fFP2_1_86_2 0
dt_fFP2_1_86_12 0
dt_fFP2_1_86_25 0
dt_fFP2_1_86_9 0
dt_fFP2_1_86_76 0
dt_fFP2_1_17_28 0
dt_fFP2_1_17_19 0
dt_fFP2_1_17_10 0
dt_fFP2_1_17_27 0
dt_fFP2_1_17_11 0
dt_fFP2_1_17_2 0
dt_fFP2_1_17_12 0
dt_fFP2_1_17_25 0
dt_fFP2_1_17_9 0
dt_fFP2_1_17_76 0
dt_fFP2_1_130_28 0
dt_fFP2_1_130_19 0
dt_fFP2_1_130_10 0
dt_fFP2_1_130_27 0
dt_fFP2_1_130_11 0
dt_fFP2_1_130_2 0
dt_fFP2_1_130_12 0
dt_fFP2_1_130_25 0
dt_fFP2_1_130_9 0
dt_fFP2_1_130_76 0
dt_fFP2_1_208_28 0
dt_fFP2_1_208_19 0
dt_fFP2_1_208_10 0
dt_fFP2_1_208_27 0
dt_fFP2_1_208_11 0
dt_fFP2_1_208_2 0
dt_fFP2_1_208_12 0
dt_fFP2_1_208_25 0
dt_fFP2_1_208_9 0
dt_fFP2_1_208_76 0
dt_fFP2_1_214_28 0
dt_fFP2_1_214_19 0
dt_fFP2_1_214_10 0
dt_fFP2_1_214_27 0
dt_fFP2_1_214_11 0
dt_fFP2_1_214_2 0
dt_fFP2_1_214_12 0
dt_fFP2_1_214_25 0
dt_fFP2_1_214_9 0
dt_fFP2_1_214_76 0
dt_fFP2_1_146_28 0
dt_fFP2_1_146_19 0
dt_fFP2_1_146_10 0
dt_fFP2_1_146_27 0
dt_fFP2_1_146_11 0
dt_fFP2_1_146_2 0
dt_fFP2_1_146_12 0
dt_fFP2_1_146_25 0
dt_fFP2_1_146_9 0
dt_fFP2_1_146_76 0
